
Gurobi 11.0.3 (linux64) logging started Thu Nov 21 23:07:14 2024

Set parameter LogFile to value "/home/yihong/Coding/OR_SUC/SUC_results_bigM100000_thread4/case24_ieee_rts_theta0.5_epsilon0.05_gurobi_seed480000_num_gen100_N_WDR100_load_scaling_factor1_exact_T12quadra_cost.txt"
Set parameter TimeLimit to value 3600
Gurobi Optimizer version 11.0.3 build v11.0.3rc0 (linux64 - "Ubuntu 20.04.6 LTS")

CPU model: AMD EPYC 7532 32-Core Processor, instruction set [SSE2|AVX|AVX2]
Thread count: 64 physical cores, 128 logical processors, using up to 4 threads

Optimize a model with 28631 rows, 15081 columns and 662130 nonzeros
Model fingerprint: 0x56677d73
Model has 1200 quadratic constraints
Variable types: 13781 continuous, 1300 integer (1300 binary)
Coefficient statistics:
  Matrix range     [3e-04, 1e+05]
  QMatrix range    [2e-03, 8e-03]
  QLMatrix range   [1e-01, 6e+01]
  Objective range  [1e+00, 1e+00]
  Bounds range     [1e+00, 1e+00]
  RHS range        [1e+00, 1e+05]
Presolve removed 23548 rows and 6528 columns
Presolve time: 0.19s
Presolved: 5083 rows, 8553 columns, 28916 nonzeros
Presolved model has 1200 quadratic constraint(s)
Variable types: 7285 continuous, 1268 integer (1268 binary)

Root relaxation: objective 2.334304e+04, 4244 iterations, 0.09 seconds (0.12 work units)

    Nodes    |    Current Node    |     Objective Bounds      |     Work
 Expl Unexpl |  Obj  Depth IntInf | Incumbent    BestBd   Gap | It/Node Time

     0     0 23343.0397    0   23          - 23343.0397      -     -    0s
     0     0 147009.324    0  491          - 147009.324      -     -    0s
     0     0 147622.765    0  491          - 147622.765      -     -    0s
     0     0 282359.406    0  382          - 282359.406      -     -    0s
     0     0 282375.833    0  253          - 282375.833      -     -    0s
     0     0 282555.147    0  137          - 282555.147      -     -    0s
     0     0 282555.941    0  138          - 282555.941      -     -    0s
     0     0 282561.707    0  137          - 282561.707      -     -    0s
     0     0 282561.709    0  137          - 282561.709      -     -    0s
     0     2 282562.443    0  137          - 282562.443      -     -    1s
H  277   323                    282712.64458 282574.845  0.05%  11.4    2s
*  277   323             108    282712.64458 282574.845  0.05%  11.4    2s

Cutting planes:
  Gomory: 32
  Implied bound: 291
  MIR: 77
  Flow cover: 318
  RLT: 13
  Relax-and-lift: 1

Explored 348 nodes (15319 simplex iterations) in 2.57 seconds (2.81 work units)
Thread count was 4 (of 128 available processors)

Solution count 2: 282713 282713 

Optimal solution found (tolerance 1.00e-03)
Warning: max constraint violation (4.3333e-07) exceeds tolerance
Best objective 2.827126445790e+05, best bound 2.825748446347e+05, gap 0.0487%
